unsat
((set-logic NIA)
(declare-fun q!3 () Int)
(declare-fun s!0 () Int)
(declare-fun b!2 () Int)
(declare-fun r!1 () Int)
(declare-fun p!5 () Int)
(declare-fun a!4 () Int)
(proof
(let ((?x793 (* r00 b00 q!3)))
 (let ((?x660 (* q00 a00 s!0)))
 (let ((?x405 (* p00 s00 b!2)))
 (let ((?x826 (+ ?x405 ?x660 (* (- 1) (* q00 r00 b!2)) (* (- 1) (* p00 b00 s!0)) ?x793 (* (- 1) (* s00 a00 q!3)))))
 (let (($x403 (>= ?x826 0)))
 (let (($x829 (= ?x826 0)))
 (let ((?x794 (* s00 a00 q!3)))
 (let ((?x798 (* (- 1) ?x793)))
 (let ((?x786 (* p00 b00 s!0)))
 (let ((?x779 (* q00 r00 b!2)))
 (let ((?x408 (* (- 1) ?x660)))
 (let ((?x788 (* (- 1) ?x405)))
 (let ((?x858 (* (- 1) (* p!5 r!1 r!1 r!1 q!3 q!3 a!4 a!4))))
 (let ((?x852 (* (- 1) (* p!5 s!0 s!0 s!0 r!1 r!1 q!3))))
 (let ((?x1265 (+ (* p!5 s!0 s!0 s!0 q!3 q!3 a!4 a!4) (* (- 2) (* p!5 s!0 s!0 s!0 b!2 q!3 q!3 a!4)) (* p!5 s!0 s!0 s!0 b!2 b!2 q!3 q!3) (* (- 1) (* s!0 s!0 s!0 q!3 q!3 q!3 a!4 a!4)) (* 2 (* s!0 s!0 s!0 b!2 q!3 q!3 q!3 a!4)) (* (- 1) (* p!5 s!0 s!0 s!0 s!0 s!0 q!3)) (* 2 (* p!5 s!0 s!0 s!0 s!0 r!1 q!3)) (* (- 3) (* p!5 s!0 s!0 r!1 q!3 q!3 a!4 a!4)) (* (- 3) (* s!0 r!1 r!1 b!2 b!2 q!3 q!3 q!3)) (* 6 (* s!0 r!1 r!1 b!2 q!3 q!3 q!3 a!4)) (* (- 3) (* s!0 r!1 r!1 q!3 q!3 q!3 a!4 a!4)) (* (- 3) (* p!5 s!0 s!0 r!1 b!2 b!2 q!3 q!3)) (* 6 (* p!5 s!0 s!0 r!1 b!2 q!3 q!3 a!4)) (* 3 (* s!0 s!0 r!1 q!3 q!3 q!3 a!4 a!4)) (* 3 (* s!0 s!0 r!1 b!2 b!2 q!3 q!3 q!3)) (* r!1 r!1 r!1 q!3 q!3 q!3 a!4 a!4) (* s!0 s!0 s!0 r!1 r!1 q!3 q!3) (* (- 2) (* r!1 r!1 r!1 b!2 q!3 q!3 q!3 a!4)) (* (- 6) (* p!5 s!0 r!1 r!1 b!2 q!3 q!3 a!4)) (* 2 (* p!5 r!1 r!1 r!1 b!2 q!3 q!3 a!4)) (* (- 1) (* s!0 s!0 s!0 b!2 b!2 q!3 q!3 q!3)) (* (- 6) (* s!0 s!0 r!1 b!2 q!3 q!3 q!3 a!4)) ?x852 ?x858 (* s!0 s!0 s!0 s!0 s!0 q!3 q!3) (* r!1 r!1 r!1 b!2 b!2 q!3 q!3 q!3) (* 3 (* p!5 s!0 r!1 r!1 q!3 q!3 a!4 a!4)) (* 3 (* p!5 s!0 r!1 r!1 b!2 b!2 q!3 q!3)) (* (- 1) (* p!5 r!1 r!1 r!1 b!2 b!2 q!3 q!3)) (* (- 2) (* s!0 s!0 s!0 s!0 r!1 q!3 q!3)))))
 (let ((?x1304 (* ?x1265 (+ ?x788 ?x408 ?x779 ?x786 ?x798 ?x794))))
 (let (($x938 (= ?x1304 0)))
 (let ((?x768 (* q00 a00 r!1)))
 (let ((?x754 (* (- 1) (* s00 a00 p!5))))
 (let ((?x770 (* (- 1) (* p00 b00 r!1))))
 (let ((?x760 (* r00 b00 p!5)))
 (let ((?x764 (* (- 1) (* q00 r00 a!4))))
 (let ((?x570 (* p00 s00 a!4)))
 (let ((?x269 (* (- 1) (* p!5 p!5 r!1 r!1 r!1 r!1 r!1))))
 (let ((?x897 (+ (* 3 (* p!5 p!5 s!0 r!1 r!1 r!1 r!1)) (* (- 1) (* p!5 p!5 p!5 r!1 r!1 r!1 a!4 a!4)) ?x269 (* 2 (* p!5 p!5 r!1 r!1 r!1 q!3 a!4 a!4)) (* (- 3) (* p!5 s!0 r!1 r!1 r!1 r!1 q!3)) (* 3 (* p!5 s!0 s!0 r!1 r!1 r!1 q!3)) ?x852 ?x858 (* p!5 p!5 s!0 s!0 s!0 r!1 r!1) (* (- 3) (* p!5 p!5 s!0 s!0 r!1 r!1 r!1)) (* p!5 r!1 r!1 r!1 r!1 r!1 q!3))))
 (let ((?x911 (* ?x897 (+ ?x788 ?x570 ?x408 ?x764 ?x760 ?x770 ?x754 ?x768 ?x779 ?x786 ?x798 ?x794))))
 (let (($x904 (= ?x911 0)))
 (let (($x912 (not $x904)))
 (let (($x843 (or $x912 (not $x938))))
 (let ((?x776 (+ ?x570 ?x764 ?x760 ?x770 ?x754 ?x768)))
 (let (($x783 (= ?x776 0)))
 (let ((?x668 (* p!5 b!2)))
 (let ((?x135 (* q00 a00)))
 (let (($x400 (= (+ ?x135 (* (- 1) (* p00 b00)) ?x668 (* (- 1) (* q!3 a!4))) 0)))
 (let ((?x131 (* s00 a00)))
 (let ((?x1204 (+ ?x131 (* (- 1) (* r00 b00)) (* r!1 b!2) (* (- 1) (* s!0 a!4)))))
 (let ((?x41 (* q00 r00)))
 (let ((?x1091 (* (- 1) ?x41)))
 (let ((?x37 (* p00 s00)))
 (let (($x1014 (and (= (+ ?x37 ?x1091 (* r!1 q!3) (* (- 1) (* p!5 s!0))) 0) (= ?x1204 0) $x400 $x783 $x829 $x843)))
 (let ((?x282 (* (- 1) (* s!0 q00 a00))))
 (let ((?x274 (* q!3 s00 a00)))
 (let ((?x273 (* (- 1) (* q!3 r00 b00))))
 (let ((?x957 (* s!0 p00 b00)))
 (let ((?x1346 (* (- 1) (* b!2 p00 s00))))
 (let ((?x1105 (* b!2 q00 r00)))
 (let ((?x284 (+ ?x1105 ?x1346 ?x957 ?x273 ?x274 ?x282)))
 (let ((?x1147 (* (- 1) (* p!5 a!4 a!4 q!3 q!3 r!1 r!1 r!1))))
 (let ((?x1123 (* (- 1) (* p!5 q!3 r!1 r!1 s!0 s!0 s!0))))
 (let ((?x638 (+ ?x1123 (* (- 2) (* q!3 q!3 r!1 s!0 s!0 s!0 s!0)) ?x1147 (* 2 (* p!5 a!4 q!3 q!3 b!2 r!1 r!1 r!1)) (* (- 1) (* p!5 q!3 q!3 b!2 b!2 r!1 r!1 r!1)) (* a!4 a!4 q!3 q!3 q!3 r!1 r!1 r!1) (* (- 2) (* a!4 q!3 q!3 q!3 b!2 r!1 r!1 r!1)) (* q!3 q!3 s!0 s!0 s!0 s!0 s!0) (* q!3 q!3 q!3 b!2 b!2 r!1 r!1 r!1) (* 3 (* p!5 a!4 a!4 q!3 q!3 r!1 r!1 s!0)) (* (- 6) (* p!5 a!4 q!3 q!3 b!2 r!1 r!1 s!0)) (* 3 (* p!5 q!3 q!3 b!2 b!2 r!1 r!1 s!0)) (* (- 3) (* a!4 a!4 q!3 q!3 q!3 r!1 r!1 s!0)) (* 6 (* a!4 q!3 q!3 q!3 b!2 r!1 r!1 s!0)) (* (- 3) (* q!3 q!3 q!3 b!2 b!2 r!1 r!1 s!0)) (* (- 3) (* p!5 a!4 a!4 q!3 q!3 r!1 s!0 s!0)) (* 6 (* p!5 a!4 q!3 q!3 b!2 r!1 s!0 s!0)) (* (- 3) (* p!5 q!3 q!3 b!2 b!2 r!1 s!0 s!0)) (* 3 (* a!4 a!4 q!3 q!3 q!3 r!1 s!0 s!0)) (* (- 6) (* a!4 q!3 q!3 q!3 b!2 r!1 s!0 s!0)) (* 3 (* q!3 q!3 q!3 b!2 b!2 r!1 s!0 s!0)) (* q!3 q!3 r!1 r!1 s!0 s!0 s!0) (* p!5 a!4 a!4 q!3 q!3 s!0 s!0 s!0) (* (- 2) (* p!5 a!4 q!3 q!3 b!2 s!0 s!0 s!0)) (* p!5 q!3 q!3 b!2 b!2 s!0 s!0 s!0) (* (- 1) (* a!4 a!4 q!3 q!3 q!3 s!0 s!0 s!0)) (* 2 (* a!4 q!3 q!3 q!3 b!2 s!0 s!0 s!0)) (* (- 1) (* p!5 q!3 s!0 s!0 s!0 s!0 s!0)) (* (- 1) (* q!3 q!3 q!3 b!2 b!2 s!0 s!0 s!0)) (* 2 (* p!5 q!3 r!1 s!0 s!0 s!0 s!0)))))
 (let ((?x1252 (* r!1 q00 a00)))
 (let ((?x985 (* (- 1) (* p!5 s00 a00))))
 (let ((?x186 (* (- 1) (* r!1 p00 b00))))
 (let ((?x999 (* p!5 r00 b00)))
 (let ((?x949 (* (- 1) (* a!4 q00 r00))))
 (let ((?x942 (* a!4 p00 s00)))
 (let ((?x424 (+ (* (- 3) (* p!5 q!3 r!1 r!1 r!1 r!1 s!0)) (* 3 (* p!5 q!3 r!1 r!1 r!1 s!0 s!0)) ?x1123 ?x1147 ?x269 (* p!5 p!5 r!1 r!1 s!0 s!0 s!0) (* (- 3) (* p!5 p!5 r!1 r!1 r!1 s!0 s!0)) (* 3 (* p!5 p!5 r!1 r!1 r!1 r!1 s!0)) (* p!5 q!3 r!1 r!1 r!1 r!1 r!1) (* (- 1) (* p!5 p!5 p!5 a!4 a!4 r!1 r!1 r!1)) (* 2 (* p!5 p!5 a!4 a!4 q!3 r!1 r!1 r!1)))))
 (let ((?x715 (* ?x424 (+ ?x942 ?x949 ?x1105 ?x1346 ?x999 ?x186 ?x985 ?x1252 ?x957 ?x273 ?x274 ?x282))))
 (let (($x425 (= (+ (* a!4 q!3) (* (- 1) ?x135) (* p00 b00) (* (- 1) ?x668)) 0)))
 (let ((?x149 (* r00 b00)))
 (let ((?x138 (* (- 1) ?x131)))
 (let (($x202 (= (+ (* p!5 s!0) (* (- 1) ?x37) ?x41 (* (- 1) (* q!3 r!1))) 0)))
 (let (($x641 (and $x202 (= (+ (* a!4 s!0) (* (- 1) (* b!2 r!1)) ?x138 ?x149) 0) $x425 (= (+ ?x942 ?x949 ?x999 ?x186 ?x985 ?x1252) 0) (= ?x284 0) (or (not (= ?x715 0)) (not (= (* ?x638 ?x284) 0))))))
 (let (($x236 (exists ((p Int) (a Int) (q Int) (b Int) (r Int) (s Int) )(! (let ((?x305 (* (- 1) (* s q00 a00))))
 (let ((?x288 (* q s00 a00)))
 (let ((?x263 (* (- 1) (* q r00 b00))))
 (let ((?x253 (* s p00 b00)))
 (let ((?x76 (* b p00 s00)))
 (let ((?x277 (* (- 1) ?x76)))
 (let ((?x72 (* b q00 r00)))
 (let ((?x311 (+ ?x72 ?x277 ?x253 ?x263 ?x288 ?x305)))
 (let ((?x974 (* (- 1) (* q q q b b s s s))))
 (let ((?x1031 (* 2 (* a q q q b s s s))))
 (let ((?x972 (* (- 1) (* a a q q q s s s))))
 (let ((?x875 (* p q q b b s s s)))
 (let ((?x1026 (* (- 2) (* p a q q b s s s))))
 (let ((?x850 (* p a a q q s s s)))
 (let ((?x1021 (* 3 (* q q q b b r s s))))
 (let ((?x1018 (* (- 6) (* a q q q b r s s))))
 (let ((?x1015 (* 3 (* a a q q q r s s))))
 (let ((?x1012 (* (- 3) (* p q q b b r s s))))
 (let ((?x1009 (* 6 (* p a q q b r s s))))
 (let ((?x1006 (* (- 3) (* p a a q q r s s))))
 (let ((?x1003 (* (- 3) (* q q q b b r r s))))
 (let ((?x1000 (* 6 (* a q q q b r r s))))
 (let ((?x997 (* (- 3) (* a a q q q r r s))))
 (let ((?x994 (* 3 (* p q q b b r r s))))
 (let ((?x991 (* (- 6) (* p a q q b r r s))))
 (let ((?x988 (* 3 (* p a a q q r r s))))
 (let ((?x473 (* q q q b b r r r)))
 (let ((?x983 (* (- 2) (* a q q q b r r r))))
 (let ((?x450 (* a a q q q r r r)))
 (let ((?x953 (* (- 1) (* p q q b b r r r))))
 (let ((?x978 (* 2 (* p a q q b r r r))))
 (let ((?x951 (* (- 1) (* p a a q q r r r))))
 (let ((?x331 (* (- 1) (* p q r r s s s))))
 (let ((?x1503 (+ ?x331 (* (- 2) (* q q r s s s s)) ?x951 ?x978 ?x953 ?x450 ?x983 (* q q s s s s s) ?x473 ?x988 ?x991 ?x994 ?x997 ?x1000 ?x1003 ?x1006 ?x1009 ?x1012 ?x1015 ?x1018 ?x1021 (* q q r r s s s) ?x850 ?x1026 ?x875 ?x972 ?x1031 (* (- 1) (* p q s s s s s)) ?x974 (* 2 (* p q r s s s s)))))
 (let ((?x224 (* r q00 a00)))
 (let ((?x246 (* (- 1) (* p s00 a00))))
 (let ((?x245 (* (- 1) (* r p00 b00))))
 (let ((?x190 (* p r00 b00)))
 (let ((?x66 (* a q00 r00)))
 (let ((?x244 (* (- 1) ?x66)))
 (let ((?x63 (* a p00 s00)))
 (let ((?x1208 (+ ?x63 ?x244 ?x72 ?x277 ?x190 ?x245 ?x246 ?x224 ?x253 ?x263 ?x288 ?x305)))
 (let ((?x1320 (* 2 (* p p a a q r r r))))
 (let ((?x1315 (* (- 1) (* p p p a a r r r))))
 (let ((?x200 (+ (* (- 3) (* p q r r r r s)) (* 3 (* p q r r r s s)) ?x331 ?x951 (* (- 1) (* p p r r r r r)) (* p p r r s s s) (* (- 3) (* p p r r r s s)) (* 3 (* p p r r r r s)) (* p q r r r r r) ?x1315 ?x1320)))
 (let (($x316 (= ?x311 0)))
 (let (($x248 (= (+ ?x63 ?x244 ?x190 ?x245 ?x246 ?x224) 0)))
 (let ((?x136 (* p00 b00)))
 (let ((?x135 (* q00 a00)))
 (let ((?x179 (* (- 1) ?x135)))
 (let (($x182 (= (+ (* a q) ?x179 ?x136 (* (- 1) (* p b))) 0)))
 (let ((?x149 (* r00 b00)))
 (let ((?x131 (* s00 a00)))
 (let ((?x138 (* (- 1) ?x131)))
 (let ((?x49 (* a s)))
 (let (($x164 (= (+ ?x49 (* (- 1) (* b r)) ?x138 ?x149) 0)))
 (let ((?x41 (* q00 r00)))
 (let ((?x37 (* p00 s00)))
 (let ((?x140 (* (- 1) ?x37)))
 (let ((?x33 (* p s)))
 (let (($x159 (= (+ ?x33 ?x140 ?x41 (* (- 1) (* q r))) 0)))
 (and $x159 $x164 $x182 $x248 $x316 (or (not (= (* ?x200 ?x1208) 0)) (not (= (* ?x1503 ?x311) 0))))))))))))))))))))))))))))))))))))))))))))))))))))))))))))))))) :qid k!39))
 ))
 (let (($x1085 (exists ((p Int) (a Int) (q Int) (b Int) (r Int) (s Int) )(! (let ((?x73 (* b00 p00 s)))
 (let ((?x493 (+ (* q00 r00 b) ?x73 (* (- 1) (* b00 r00 q)) (* (- 1) (* p00 s00 b)) (* a00 s00 q) (* (- 1) (* a00 q00 s)))))
 (let ((?x318 (* (- 1) q)))
 (let ((?x729 (+ p ?x318)))
 (let ((?x1319 (+ a (* (- 1) b))))
 (let ((?x323 (* (- 1) s)))
 (let ((?x1162 (+ r ?x323)))
 (let ((?x600 (+ (* (- 1) (* ?x1162 ?x1162 ?x729 s s s q)) (* (- 1) (* ?x1162 ?x1162 ?x1162 ?x1319 ?x1319 ?x729 q q)))))
 (let ((?x986 (+ (* q00 r00 (+ b (* (- 1) a))) (* b00 p00 (+ s (* (- 1) r))) (* (- 1) (* b00 r00 (+ q (* (- 1) p)))) (* (- 1) (* p00 s00 (+ b (* (- 1) a)))) (* a00 s00 (+ q (* (- 1) p))) (* (- 1) (* a00 q00 (+ s (* (- 1) r)))))))
 (let ((?x1048 (* (- 1) p)))
 (let ((?x604 (+ q ?x1048)))
 (let ((?x1020 (* (- 1) r)))
 (let ((?x1328 (+ s ?x1020)))
 (let ((?x1049 (+ (* (- 1) (* ?x1328 ?x1328 ?x1328 ?x604 r r p)) (* (- 1) (* ?x604 ?x604 r r r a a p)))))
 (let (($x1322 (or (not (= (* ?x1049 ?x986) 0)) (not (= (* ?x600 ?x493) 0)))))
 (let (($x724 (= ?x493 0)))
 (let ((?x69 (* a00 q00 r)))
 (let ((?x975 (* p00 s00 a)))
 (let ((?x878 (* b00 r00 p)))
 (let ((?x1078 (+ ?x878 ?x975 (* (- 1) (* b00 p00 r)) (* (- 1) (* q00 r00 a)) (* (- 1) (* a00 s00 p)) ?x69)))
 (let ((?x57 (* b00 p00)))
 (let ((?x926 (* q a)))
 (let (($x1032 (= (+ ?x926 (* (- 1) (* a00 q00)) ?x57 (* (- 1) (* b p))) 0)))
 (let ((?x47 (* a00 s00)))
 (let ((?x918 (* r b)))
 (let (($x954 (= (+ ?x918 ?x47 (* (- 1) (* s a)) (* (- 1) (* b00 r00))) 0)))
 (let ((?x41 (* q00 r00)))
 (let ((?x1091 (* (- 1) ?x41)))
 (let ((?x37 (* p00 s00)))
 (let ((?x921 (* r q)))
 (and (= (+ ?x921 (* (- 1) (* s p)) ?x37 ?x1091) 0) $x954 $x1032 (= ?x1078 0) $x724 $x1322))))))))))))))))))))))))))))))) :qid k!39))
 ))
 (let ((?x1025 (lambda ((p Int) (a Int) (q Int) (b Int) (r Int) (s Int) )(let ((?x305 (* (- 1) (* s q00 a00))))
 (let ((?x288 (* q s00 a00)))
 (let ((?x263 (* (- 1) (* q r00 b00))))
 (let ((?x253 (* s p00 b00)))
 (let ((?x76 (* b p00 s00)))
 (let ((?x277 (* (- 1) ?x76)))
 (let ((?x72 (* b q00 r00)))
 (let ((?x311 (+ ?x72 ?x277 ?x253 ?x263 ?x288 ?x305)))
 (let ((?x974 (* (- 1) (* q q q b b s s s))))
 (let ((?x1031 (* 2 (* a q q q b s s s))))
 (let ((?x972 (* (- 1) (* a a q q q s s s))))
 (let ((?x875 (* p q q b b s s s)))
 (let ((?x1026 (* (- 2) (* p a q q b s s s))))
 (let ((?x850 (* p a a q q s s s)))
 (let ((?x1021 (* 3 (* q q q b b r s s))))
 (let ((?x1018 (* (- 6) (* a q q q b r s s))))
 (let ((?x1015 (* 3 (* a a q q q r s s))))
 (let ((?x1012 (* (- 3) (* p q q b b r s s))))
 (let ((?x1009 (* 6 (* p a q q b r s s))))
 (let ((?x1006 (* (- 3) (* p a a q q r s s))))
 (let ((?x1003 (* (- 3) (* q q q b b r r s))))
 (let ((?x1000 (* 6 (* a q q q b r r s))))
 (let ((?x997 (* (- 3) (* a a q q q r r s))))
 (let ((?x994 (* 3 (* p q q b b r r s))))
 (let ((?x991 (* (- 6) (* p a q q b r r s))))
 (let ((?x988 (* 3 (* p a a q q r r s))))
 (let ((?x473 (* q q q b b r r r)))
 (let ((?x983 (* (- 2) (* a q q q b r r r))))
 (let ((?x450 (* a a q q q r r r)))
 (let ((?x953 (* (- 1) (* p q q b b r r r))))
 (let ((?x978 (* 2 (* p a q q b r r r))))
 (let ((?x951 (* (- 1) (* p a a q q r r r))))
 (let ((?x331 (* (- 1) (* p q r r s s s))))
 (let ((?x1503 (+ ?x331 (* (- 2) (* q q r s s s s)) ?x951 ?x978 ?x953 ?x450 ?x983 (* q q s s s s s) ?x473 ?x988 ?x991 ?x994 ?x997 ?x1000 ?x1003 ?x1006 ?x1009 ?x1012 ?x1015 ?x1018 ?x1021 (* q q r r s s s) ?x850 ?x1026 ?x875 ?x972 ?x1031 (* (- 1) (* p q s s s s s)) ?x974 (* 2 (* p q r s s s s)))))
 (let ((?x224 (* r q00 a00)))
 (let ((?x246 (* (- 1) (* p s00 a00))))
 (let ((?x245 (* (- 1) (* r p00 b00))))
 (let ((?x190 (* p r00 b00)))
 (let ((?x66 (* a q00 r00)))
 (let ((?x244 (* (- 1) ?x66)))
 (let ((?x63 (* a p00 s00)))
 (let ((?x1208 (+ ?x63 ?x244 ?x72 ?x277 ?x190 ?x245 ?x246 ?x224 ?x253 ?x263 ?x288 ?x305)))
 (let ((?x1320 (* 2 (* p p a a q r r r))))
 (let ((?x1315 (* (- 1) (* p p p a a r r r))))
 (let ((?x200 (+ (* (- 3) (* p q r r r r s)) (* 3 (* p q r r r s s)) ?x331 ?x951 (* (- 1) (* p p r r r r r)) (* p p r r s s s) (* (- 3) (* p p r r r s s)) (* 3 (* p p r r r r s)) (* p q r r r r r) ?x1315 ?x1320)))
 (let (($x316 (= ?x311 0)))
 (let (($x248 (= (+ ?x63 ?x244 ?x190 ?x245 ?x246 ?x224) 0)))
 (let ((?x136 (* p00 b00)))
 (let ((?x135 (* q00 a00)))
 (let ((?x179 (* (- 1) ?x135)))
 (let (($x182 (= (+ (* a q) ?x179 ?x136 (* (- 1) (* p b))) 0)))
 (let ((?x149 (* r00 b00)))
 (let ((?x131 (* s00 a00)))
 (let ((?x138 (* (- 1) ?x131)))
 (let ((?x49 (* a s)))
 (let (($x164 (= (+ ?x49 (* (- 1) (* b r)) ?x138 ?x149) 0)))
 (let ((?x41 (* q00 r00)))
 (let ((?x37 (* p00 s00)))
 (let ((?x140 (* (- 1) ?x37)))
 (let ((?x33 (* p s)))
 (let (($x159 (= (+ ?x33 ?x140 ?x41 (* (- 1) (* q r))) 0)))
 (let (($x1475 (and $x159 $x164 $x182 $x248 $x316 (or (not (= (* ?x200 ?x1208) 0)) (not (= (* ?x1503 ?x311) 0))))))
 (let ((?x73 (* b00 p00 s)))
 (let ((?x493 (+ (* q00 r00 b) ?x73 (* (- 1) (* b00 r00 q)) (* (- 1) (* p00 s00 b)) (* a00 s00 q) (* (- 1) (* a00 q00 s)))))
 (let ((?x318 (* (- 1) q)))
 (let ((?x729 (+ p ?x318)))
 (let ((?x1319 (+ a (* (- 1) b))))
 (let ((?x323 (* (- 1) s)))
 (let ((?x1162 (+ r ?x323)))
 (let ((?x600 (+ (* (- 1) (* ?x1162 ?x1162 ?x729 s s s q)) (* (- 1) (* ?x1162 ?x1162 ?x1162 ?x1319 ?x1319 ?x729 q q)))))
 (let ((?x986 (+ (* q00 r00 (+ b (* (- 1) a))) (* b00 p00 (+ s (* (- 1) r))) (* (- 1) (* b00 r00 (+ q (* (- 1) p)))) (* (- 1) (* p00 s00 (+ b (* (- 1) a)))) (* a00 s00 (+ q (* (- 1) p))) (* (- 1) (* a00 q00 (+ s (* (- 1) r)))))))
 (let ((?x1048 (* (- 1) p)))
 (let ((?x604 (+ q ?x1048)))
 (let ((?x1020 (* (- 1) r)))
 (let ((?x1328 (+ s ?x1020)))
 (let ((?x1049 (+ (* (- 1) (* ?x1328 ?x1328 ?x1328 ?x604 r r p)) (* (- 1) (* ?x604 ?x604 r r r a a p)))))
 (let (($x1322 (or (not (= (* ?x1049 ?x986) 0)) (not (= (* ?x600 ?x493) 0)))))
 (let (($x724 (= ?x493 0)))
 (let ((?x69 (* a00 q00 r)))
 (let ((?x975 (* p00 s00 a)))
 (let ((?x878 (* b00 r00 p)))
 (let ((?x1078 (+ ?x878 ?x975 (* (- 1) (* b00 p00 r)) (* (- 1) (* q00 r00 a)) (* (- 1) (* a00 s00 p)) ?x69)))
 (let ((?x57 (* b00 p00)))
 (let ((?x926 (* q a)))
 (let (($x1032 (= (+ ?x926 (* (- 1) (* a00 q00)) ?x57 (* (- 1) (* b p))) 0)))
 (let ((?x47 (* a00 s00)))
 (let ((?x918 (* r b)))
 (let (($x954 (= (+ ?x918 ?x47 (* (- 1) (* s a)) (* (- 1) (* b00 r00))) 0)))
 (let (($x725 (= (+ (* r q) (* (- 1) (* s p)) ?x37 (* (- 1) ?x41)) 0)))
 (let (($x1274 (and $x725 $x954 $x1032 (= ?x1078 0) $x724 $x1322)))
 (rewrite (= $x1274 $x1475)))))))))))))))))))))))))))))))))))))))))))))))))))))))))))))))))))))))))))))))))))))))))))))
 ))
 (let (($x674 (exists ((p Int) (a Int) (q Int) (b Int) (r Int) (s Int) )(! (let ((?x73 (* b00 p00 s)))
 (let ((?x493 (+ (* q00 r00 b) ?x73 (* (- 1) (* b00 r00 q)) (* (- 1) (* p00 s00 b)) (* a00 s00 q) (* (- 1) (* a00 q00 s)))))
 (let ((?x318 (* (- 1) q)))
 (let ((?x729 (+ p ?x318)))
 (let ((?x1319 (+ a (* (- 1) b))))
 (let ((?x323 (* (- 1) s)))
 (let ((?x1162 (+ r ?x323)))
 (let ((?x600 (+ (* (- 1) (* ?x1162 ?x1162 ?x729 s s s q)) (* (- 1) (* ?x1162 ?x1162 ?x1162 ?x1319 ?x1319 ?x729 q q)))))
 (let ((?x986 (+ (* q00 r00 (+ b (* (- 1) a))) (* b00 p00 (+ s (* (- 1) r))) (* (- 1) (* b00 r00 (+ q (* (- 1) p)))) (* (- 1) (* p00 s00 (+ b (* (- 1) a)))) (* a00 s00 (+ q (* (- 1) p))) (* (- 1) (* a00 q00 (+ s (* (- 1) r)))))))
 (let ((?x1048 (* (- 1) p)))
 (let ((?x604 (+ q ?x1048)))
 (let ((?x1020 (* (- 1) r)))
 (let ((?x1328 (+ s ?x1020)))
 (let ((?x1049 (+ (* (- 1) (* ?x1328 ?x1328 ?x1328 ?x604 r r p)) (* (- 1) (* ?x604 ?x604 r r r a a p)))))
 (let (($x1322 (or (not (= (* ?x1049 ?x986) 0)) (not (= (* ?x600 ?x493) 0)))))
 (let (($x724 (= ?x493 0)))
 (let ((?x191 (* a00 s00 p)))
 (let ((?x692 (* q00 r00 a)))
 (let ((?x65 (* b00 p00 r)))
 (let ((?x1099 (+ (* (- 1) (* b00 r00 p)) (* (- 1) (* p00 s00 a)) ?x65 ?x692 ?x191 (* (- 1) (* a00 q00 r)))))
 (let ((?x59 (* b p)))
 (let ((?x55 (* a00 q00)))
 (let (($x1024 (= (+ (* (- 1) (* q a)) ?x55 (* (- 1) (* b00 p00)) ?x59) 0)))
 (let ((?x51 (* b00 r00)))
 (let ((?x965 (* s a)))
 (let (($x1035 (= (+ (* (- 1) (* r b)) (* (- 1) (* a00 s00)) ?x965 ?x51) 0)))
 (let ((?x41 (* q00 r00)))
 (let ((?x37 (* p00 s00)))
 (let ((?x140 (* (- 1) ?x37)))
 (let ((?x929 (* s p)))
 (and (= (+ (* (- 1) (* r q)) ?x929 ?x140 ?x41) 0) $x1035 $x1024 (= ?x1099 0) $x724 $x1322))))))))))))))))))))))))))))))) :qid k!39))
 ))
 (let ((?x1269 (lambda ((p Int) (a Int) (q Int) (b Int) (r Int) (s Int) )(let ((?x73 (* b00 p00 s)))
 (let ((?x493 (+ (* q00 r00 b) ?x73 (* (- 1) (* b00 r00 q)) (* (- 1) (* p00 s00 b)) (* a00 s00 q) (* (- 1) (* a00 q00 s)))))
 (let ((?x318 (* (- 1) q)))
 (let ((?x729 (+ p ?x318)))
 (let ((?x1319 (+ a (* (- 1) b))))
 (let ((?x323 (* (- 1) s)))
 (let ((?x1162 (+ r ?x323)))
 (let ((?x600 (+ (* (- 1) (* ?x1162 ?x1162 ?x729 s s s q)) (* (- 1) (* ?x1162 ?x1162 ?x1162 ?x1319 ?x1319 ?x729 q q)))))
 (let ((?x986 (+ (* q00 r00 (+ b (* (- 1) a))) (* b00 p00 (+ s (* (- 1) r))) (* (- 1) (* b00 r00 (+ q (* (- 1) p)))) (* (- 1) (* p00 s00 (+ b (* (- 1) a)))) (* a00 s00 (+ q (* (- 1) p))) (* (- 1) (* a00 q00 (+ s (* (- 1) r)))))))
 (let ((?x1048 (* (- 1) p)))
 (let ((?x604 (+ q ?x1048)))
 (let ((?x1020 (* (- 1) r)))
 (let ((?x1328 (+ s ?x1020)))
 (let ((?x1049 (+ (* (- 1) (* ?x1328 ?x1328 ?x1328 ?x604 r r p)) (* (- 1) (* ?x604 ?x604 r r r a a p)))))
 (let (($x1322 (or (not (= (* ?x1049 ?x986) 0)) (not (= (* ?x600 ?x493) 0)))))
 (let (($x724 (= ?x493 0)))
 (let ((?x69 (* a00 q00 r)))
 (let ((?x975 (* p00 s00 a)))
 (let ((?x878 (* b00 r00 p)))
 (let ((?x1078 (+ ?x878 ?x975 (* (- 1) (* b00 p00 r)) (* (- 1) (* q00 r00 a)) (* (- 1) (* a00 s00 p)) ?x69)))
 (let ((?x57 (* b00 p00)))
 (let ((?x926 (* q a)))
 (let (($x1032 (= (+ ?x926 (* (- 1) (* a00 q00)) ?x57 (* (- 1) (* b p))) 0)))
 (let ((?x47 (* a00 s00)))
 (let ((?x918 (* r b)))
 (let (($x954 (= (+ ?x918 ?x47 (* (- 1) (* s a)) (* (- 1) (* b00 r00))) 0)))
 (let ((?x41 (* q00 r00)))
 (let ((?x1091 (* (- 1) ?x41)))
 (let ((?x37 (* p00 s00)))
 (let ((?x921 (* r q)))
 (let (($x1274 (and (= (+ ?x921 (* (- 1) (* s p)) ?x37 ?x1091) 0) $x954 $x1032 (= ?x1078 0) $x724 $x1322)))
 (let ((?x191 (* a00 s00 p)))
 (let ((?x692 (* q00 r00 a)))
 (let ((?x65 (* b00 p00 r)))
 (let (($x231 (= (+ (* (- 1) ?x878) (* (- 1) ?x975) ?x65 ?x692 ?x191 (* (- 1) ?x69)) 0)))
 (let (($x1024 (= (+ (* (- 1) ?x926) (* a00 q00) (* (- 1) ?x57) (* b p)) 0)))
 (let (($x1035 (= (+ (* (- 1) ?x918) (* (- 1) ?x47) (* s a) (* b00 r00)) 0)))
 (let (($x1159 (and (= (+ (* (- 1) ?x921) (* s p) (* (- 1) ?x37) ?x41) 0) $x1035 $x1024 $x231 $x724 $x1322)))
 (rewrite (= $x1159 $x1274)))))))))))))))))))))))))))))))))))))))))
 ))
 (let (($x115 (exists ((p Int) (a Int) (q Int) (b Int) (r Int) (s Int) )(! (let ((?x95 (- s r)))
 (let ((?x98 (- q p)))
 (let ((?x31 (- 1)))
 (let ((?x109 (- (* ?x31 p ?x98 r r ?x95 ?x95 ?x95) (* a a p ?x98 ?x98 r r r))))
 (let ((?x101 (- (+ (* (- b a) q00 r00) (* b00 p00 ?x95)) (* b00 ?x98 r00))))
 (let ((?x106 (- (+ (- ?x101 (* (- b a) p00 s00)) (* a00 ?x98 s00)) (* a00 q00 ?x95))))
 (let ((?x85 (- r s)))
 (let ((?x84 (- p q)))
 (let ((?x87 (- a b)))
 (let ((?x89 (- (* ?x31 ?x84 q ?x85 ?x85 s s s) (* ?x87 ?x87 ?x84 q q ?x85 ?x85 ?x85))))
 (let ((?x81 (* a00 q00 s)))
 (let ((?x76 (* b p00 s00)))
 (let ((?x77 (- (+ (* b q00 r00) (* b00 p00 s)) (* b00 q r00))))
 (let ((?x82 (- (+ (- ?x77 ?x76) (* a00 q s00)) ?x81)))
 (let ((?x69 (* a00 q00 r)))
 (let ((?x66 (* a q00 r00)))
 (let ((?x65 (* b00 p00 r)))
 (let ((?x68 (+ (- (* ?x31 b00 p r00) (* a p00 s00)) ?x65 ?x66 (* a00 p s00))))
 (let ((?x59 (* b p)))
 (let ((?x60 (+ (- (+ (* ?x31 a q) (* a00 q00)) (* b00 p00)) ?x59)))
 (let ((?x51 (* b00 r00)))
 (let ((?x49 (* a s)))
 (let ((?x41 (* q00 r00)))
 (let (($x44 (= (+ (- (+ (* ?x31 q r) (* p s)) (* p00 s00)) ?x41) 0)))
 (and $x44 (= (+ (- (* ?x31 b r) (* a00 s00)) ?x49 ?x51) 0) (= ?x60 0) (= (- ?x68 ?x69) 0) (= ?x82 0) (or (not (= (* ?x82 ?x89) 0)) (not (= (* ?x106 ?x109) 0)))))))))))))))))))))))))))) :qid k!39))
 ))
 (let ((?x1299 (lambda ((p Int) (a Int) (q Int) (b Int) (r Int) (s Int) )(let ((?x73 (* b00 p00 s)))
 (let ((?x493 (+ (* q00 r00 b) ?x73 (* (- 1) (* b00 r00 q)) (* (- 1) (* p00 s00 b)) (* a00 s00 q) (* (- 1) (* a00 q00 s)))))
 (let ((?x318 (* (- 1) q)))
 (let ((?x729 (+ p ?x318)))
 (let ((?x1319 (+ a (* (- 1) b))))
 (let ((?x323 (* (- 1) s)))
 (let ((?x1162 (+ r ?x323)))
 (let ((?x600 (+ (* (- 1) (* ?x1162 ?x1162 ?x729 s s s q)) (* (- 1) (* ?x1162 ?x1162 ?x1162 ?x1319 ?x1319 ?x729 q q)))))
 (let ((?x986 (+ (* q00 r00 (+ b (* (- 1) a))) (* b00 p00 (+ s (* (- 1) r))) (* (- 1) (* b00 r00 (+ q (* (- 1) p)))) (* (- 1) (* p00 s00 (+ b (* (- 1) a)))) (* a00 s00 (+ q (* (- 1) p))) (* (- 1) (* a00 q00 (+ s (* (- 1) r)))))))
 (let ((?x1048 (* (- 1) p)))
 (let ((?x604 (+ q ?x1048)))
 (let ((?x1020 (* (- 1) r)))
 (let ((?x1328 (+ s ?x1020)))
 (let ((?x1049 (+ (* (- 1) (* ?x1328 ?x1328 ?x1328 ?x604 r r p)) (* (- 1) (* ?x604 ?x604 r r r a a p)))))
 (let (($x1322 (or (not (= (* ?x1049 ?x986) 0)) (not (= (* ?x600 ?x493) 0)))))
 (let (($x724 (= ?x493 0)))
 (let ((?x191 (* a00 s00 p)))
 (let ((?x692 (* q00 r00 a)))
 (let ((?x65 (* b00 p00 r)))
 (let ((?x1099 (+ (* (- 1) (* b00 r00 p)) (* (- 1) (* p00 s00 a)) ?x65 ?x692 ?x191 (* (- 1) (* a00 q00 r)))))
 (let ((?x59 (* b p)))
 (let ((?x55 (* a00 q00)))
 (let (($x1024 (= (+ (* (- 1) (* q a)) ?x55 (* (- 1) (* b00 p00)) ?x59) 0)))
 (let ((?x51 (* b00 r00)))
 (let ((?x965 (* s a)))
 (let (($x1035 (= (+ (* (- 1) (* r b)) (* (- 1) (* a00 s00)) ?x965 ?x51) 0)))
 (let ((?x41 (* q00 r00)))
 (let ((?x37 (* p00 s00)))
 (let ((?x140 (* (- 1) ?x37)))
 (let ((?x929 (* s p)))
 (let (($x1159 (and (= (+ (* (- 1) (* r q)) ?x929 ?x140 ?x41) 0) $x1035 $x1024 (= ?x1099 0) $x724 $x1322)))
 (let ((?x95 (- s r)))
 (let ((?x98 (- q p)))
 (let ((?x31 (- 1)))
 (let ((?x109 (- (* ?x31 p ?x98 r r ?x95 ?x95 ?x95) (* a a p ?x98 ?x98 r r r))))
 (let ((?x101 (- (+ (* (- b a) q00 r00) (* b00 p00 ?x95)) (* b00 ?x98 r00))))
 (let ((?x106 (- (+ (- ?x101 (* (- b a) p00 s00)) (* a00 ?x98 s00)) (* a00 q00 ?x95))))
 (let ((?x85 (- r s)))
 (let ((?x84 (- p q)))
 (let ((?x87 (- a b)))
 (let ((?x89 (- (* ?x31 ?x84 q ?x85 ?x85 s s s) (* ?x87 ?x87 ?x84 q q ?x85 ?x85 ?x85))))
 (let ((?x81 (* a00 q00 s)))
 (let ((?x76 (* b p00 s00)))
 (let ((?x80 (+ (- (- (+ (* b q00 r00) ?x73) (* b00 q r00)) ?x76) (* a00 q s00))))
 (let ((?x82 (- ?x80 ?x81)))
 (let ((?x69 (* a00 q00 r)))
 (let ((?x66 (* a q00 r00)))
 (let ((?x68 (+ (- (* ?x31 b00 p r00) (* a p00 s00)) ?x65 ?x66 (* a00 p s00))))
 (let (($x53 (= (+ (- (* ?x31 b r) (* a00 s00)) (* a s) ?x51) 0)))
 (let (($x114 (and (= (+ (- (+ (* ?x31 q r) (* p s)) ?x37) ?x41) 0) $x53 (= (+ (- (+ (* ?x31 a q) ?x55) (* b00 p00)) ?x59) 0) (= (- ?x68 ?x69) 0) (= ?x82 0) (or (not (= (* ?x82 ?x89) 0)) (not (= (* ?x106 ?x109) 0))))))
 (rewrite (= $x114 $x1159)))))))))))))))))))))))))))))))))))))))))))))))))))))
 ))
 (let ((@x116 (asserted $x115)))
 (let ((@x199 (mp (mp @x116 (quant-intro (proof-bind ?x1299) (= $x115 $x674)) $x674) (rewrite (= $x674 $x674)) $x674)))
 (let ((@x1181 (mp (mp @x199 (quant-intro (proof-bind ?x1269) (= $x674 $x1085)) $x1085) (quant-intro (proof-bind ?x1025) (= $x1085 $x236)) $x236)))
 (let ((@x863 (mp (mp~ @x1181 (sk (~ $x236 $x641)) $x641) (rewrite (= $x641 $x1014)) $x1014)))
 (let ((@x412 (and-elim @x863 $x829)))
 (let ((@x1313 (unit-resolution ((_ th-lemma arith triangle-eq) (or (not $x829) $x403)) @x412 $x403)))
 (let (($x404 (<= ?x776 0)))
 (let ((@x664 (and-elim @x863 $x783)))
 (let ((@x665 (unit-resolution ((_ th-lemma arith triangle-eq) (or (not $x783) $x404)) @x664 $x404)))
 (let (($x766 (<= ?x826 0)))
 (let ((@x252 (unit-resolution ((_ th-lemma arith triangle-eq) (or (not $x829) $x766)) @x412 $x766)))
 (let (($x758 (>= ?x776 0)))
 (let ((@x558 (unit-resolution ((_ th-lemma arith triangle-eq) (or (not $x783) $x758)) @x664 $x758)))
 (let (($x944 (not (<= ?x911 0))))
 (let (($x802 (>= ?x1304 0)))
 (let (($x407 (<= ?x1304 0)))
 (let ((@x721 (unit-resolution ((_ th-lemma arith triangle-eq) (or $x938 (not $x407) (not $x802))) (lemma ((_ th-lemma arith farkas 1 1 1) (hypothesis (not $x407)) @x252 @x1313 false) $x407) (lemma ((_ th-lemma arith farkas 1 1 1) (hypothesis (not $x802)) @x252 @x1313 false) $x802) $x938)))
 (let (($x406 (>= ?x911 0)))
 (let ((@x741 (lemma ((_ th-lemma arith farkas 1 1 1 1 1) (hypothesis (not $x406)) @x558 @x252 @x665 @x1313 false) $x406)))
 (let ((@x1058 (unit-resolution ((_ th-lemma arith triangle-eq) (or $x904 $x944 (not $x406))) @x741 (unit-resolution (and-elim @x863 $x843) @x721 $x912) $x944)))
 ((_ th-lemma arith farkas 1 1 1 1 1) @x1058 @x558 @x252 @x665 @x1313 false)))))))))))))))))))))))))))))))))))))))))))))))))))))))))))))))))))))))))))))))))))))))))))))

(:added-eqs                 14
 :arith-assert-diseq        3
 :arith-assert-lower        23
 :arith-assert-upper        22
 :arith-conflicts           4
 :arith-eq-adapter          11
 :arith-fixed-eqs           10
 :arith-grobner             4
 :arith-max-min             640
 :arith-nonlinear-horner    32
 :arith-num-rows            9
 :arith-pivots              5
 :arith-pseudo-nonlinear    8
 :arith-row-summations      3
 :arith-tableau-max-columns 93
 :arith-tableau-max-rows    9
 :conflicts                 4
 :decisions                 7
 :del-clause                27
 :final-checks              4
 :max-memory                86.32
 :memory                    3.29
 :mk-bool-var               39
 :mk-clause                 40
 :num-allocs                399164247801.00
 :num-checks                1
 :propagations              19
 :rlimit-count              22583807
 :time                      12.10
 :total-time                12.07)
